50
1 115 705
2 740 631
3 881 380
4 806 532
5 134 796
6 133 104
7 301 844
8 361 38
9 751 944
10 653 983
11 495 702
12 947 688
13 447 577
14 399 516
15 62 278
16 599 177
17 984 338
18 808 554
19 718 614
20 776 542
21 99 910
22 647 400
23 443 698
24 439 193
25 641 782
26 175 826
27 483 813
28 203 930
29 389 603
30 445 141
31 881 734
32 319 554
33 763 817
34 798 170
35 120 574
36 713 219
37 173 359
38 310 616
39 747 439
40 809 388
41 220 674
42 213 393
43 486 107
44 12 565
45 710 148
46 707 280
47 882 716
48 525 644
49 532 322
50 815 343